NAME : mtspf.pid5352.gtsp.230854728.tour
COMMENT : Length = 230854728
COMMENT : Found by LKH [Keld Helsgaun] Wed Jan 15 00:18:05 2025
TYPE : TOUR
DIMENSION : 163
TOUR_SECTION
1
134
135
132
133
47
44
45
46
154
155
152
153
86
87
84
85
57
58
59
56
109
110
111
108
118
119
116
117
163
160
161
162
120
121
122
123
14
15
12
13
7
4
5
6
35
32
33
34
141
142
143
140
8
9
10
11
139
136
137
138
126
127
124
125
100
101
102
103
71
68
69
70
63
60
61
62
36
37
38
39
30
31
28
29
150
151
148
149
105
106
107
104
79
76
77
78
2
64
65
66
67
25
26
27
24
51
48
49
50
82
83
80
81
43
40
41
42
98
99
96
97
73
74
75
72
146
147
144
145
91
88
89
90
19
16
17
18
52
53
54
55
112
113
114
115
131
128
129
130
156
157
158
159
94
95
92
93
23
20
21
22
3
-1
EOF
